200
100
70
70
70
70
69
69
69
68
68
68
68
68
67
67
66
64
64
64
63
63
63
63
62
62
62
62
62
62
61
61
60
60
60
60
59
59
58
58
58
57
57
57
56
56
56
56
55
55
55
54
54
54
54
54
54
54
54
53
53
53
53
53
53
53
53
53
51
51
51
51
51
50
49
49
49
48
48
48
47
47
47
45
45
45
45
44
44
44
44
43
43
43
42
42
42
42
42
41
41
41
41
41
40
39
38
38
38
38
38
38
38
36
36
36
36
36
35
34
34
34
33
33
32
32
32
32
31
31
31
31
31
31
30
30
29
29
29
29
29
29
29
29
29
27
27
27
26
26
25
25
25
24
24
24
23
23
22
21
21
21
21
20
20
20
19
18
18
17
17
17
17
16
16
16
16
15
15
15
14
14
14
14
13
12
12
12
12
12
11
11
11
11
11
11
10
10
10
10
10
10
